% number of games is 41

num = 41;
cap = 5;
refill = 2;
fun = [-2, -11, -15, -14, 2, 16, -9, -7, -9, 13, 0, -13, 13, -4, 19, 1, -3, 4, 19, -12, -2, -16, 13, 18, -12, 6, -17, 16, -18, -10, 12, 9, -12, -20, 0, 13, -10, -13, -12, -10, -3];
